
Gurobi 7.5.2 (linux64) logging started Sat Jul  7 16:02:37 2018

Changed value of parameter LogFile to result/ilp/simNo_8-n_100-m_40-s_4-minVAF_0.05-cov_10000-k_2-fn_0.25-fp_0.0001-na_0.15.ILP.gurobiSolverLog
   Prev: gurobi.log  Default: 
Changed value of parameter TimeLimit to 86400.0
   Prev: 1e+100  Min: 0.0  Max: 1e+100  Default: 1e+100
Optimize a model with 639293 rows, 10765 columns and 1940420 nonzeros
Variable types: 0 continuous, 10765 integer (10765 binary)
Coefficient statistics:
  Matrix range     [3e-04, 4e+00]
  Objective range  [1e+00, 2e+01]
  Bounds range     [1e+00, 1e+00]
  RHS range        [2e-01, 2e+00]
Found heuristic solution: objective -12821.32873
Presolve removed 132358 rows and 1019 columns (presolve time = 5s) ...
Presolve removed 132970 rows and 1019 columns (presolve time = 14s) ...
Presolve removed 190370 rows and 1593 columns (presolve time = 15s) ...
Presolve removed 190370 rows and 1593 columns (presolve time = 20s) ...
Presolve removed 190370 rows and 1593 columns
Presolve time: 21.40s
Presolved: 448923 rows, 9172 columns, 1349101 nonzeros
Variable types: 0 continuous, 9172 integer (9172 binary)
Presolved: 9172 rows, 458095 columns, 1358273 nonzeros

Presolve removed 9172 rows and 458095 columns

Root simplex log...

Iteration    Objective       Primal Inf.    Dual Inf.      Time
       0    4.5923810e+01   0.000000e+00   6.282700e+04     26s
   25866   -2.1917503e+02   0.000000e+00   1.389382e+05     30s
   40645   -2.5616494e+02   0.000000e+00   1.228299e+05     35s
   55395   -2.8499925e+02   0.000000e+00   5.259134e+04     40s
   56062   -2.8567860e+02   0.000000e+00   0.000000e+00     41s
   56062   -2.8567860e+02   0.000000e+00   0.000000e+00     42s

Root relaxation: objective -2.856786e+02, 56062 iterations, 18.90 seconds
Total elapsed time = 98.88s
Total elapsed time = 138.11s
Total elapsed time = 189.23s

    Nodes    |    Current Node    |     Objective Bounds      |     Work
 Expl Unexpl |  Obj  Depth IntInf | Incumbent    BestBd   Gap | It/Node Time

     0     0 -285.67860    0 2055 -12821.329 -285.67860  97.8%     -  194s
H    0     0                    -504.1425495 -285.67860  43.3%     -  199s
H    0     0                    -382.9031412 -285.67860  25.4%     -  204s
     0     0 -289.27751    0 2079 -382.90314 -289.27751  24.5%     -  295s
H    0     0                    -378.6146585 -289.27751  23.6%     -  309s
     0     0 -289.27751    0 2081 -378.61466 -289.27751  23.6%     -  313s
     0     0 -293.10848    0 2093 -378.61466 -293.10848  22.6%     -  601s
     0     0 -293.82510    0 2133 -378.61466 -293.82510  22.4%     -  643s
     0     0 -293.99150    0 2131 -378.61466 -293.99150  22.4%     -  684s
     0     0 -294.01664    0 2191 -378.61466 -294.01664  22.3%     -  699s
     0     0 -294.01664    0 2192 -378.61466 -294.01664  22.3%     -  704s
     0     0 -294.67322    0 2145 -378.61466 -294.67322  22.2%     -  790s
H    0     0                    -376.4704172 -294.67322  21.7%     -  797s
     0     0 -294.78774    0 2186 -376.47042 -294.78774  21.7%     -  808s
     0     0 -294.83090    0 2195 -376.47042 -294.83090  21.7%     -  820s
     0     0 -294.83090    0 2194 -376.47042 -294.83090  21.7%     -  824s
     0     0 -296.23498    0 2135 -376.47042 -296.23498  21.3%     -  911s
     0     0 -296.55187    0 2129 -376.47042 -296.55187  21.2%     -  972s
     0     0 -296.56287    0 2142 -376.47042 -296.56287  21.2%     -  981s
     0     0 -296.56287    0 2146 -376.47042 -296.56287  21.2%     -  986s
     0     0 -298.82692    0 2165 -376.47042 -298.82692  20.6%     - 1288s
     0     0 -298.99912    0 2234 -376.47042 -298.99912  20.6%     - 1312s
     0     0 -299.02034    0 2226 -376.47042 -299.02034  20.6%     - 1324s
     0     0 -299.02034    0 2240 -376.47042 -299.02034  20.6%     - 1327s
     0     0 -300.82318    0 2291 -376.47042 -300.82318  20.1%     - 1502s
H    0     0                    -373.2540552 -300.82318  19.4%     - 1508s
     0     0 -301.00668    0 2244 -373.25406 -301.00668  19.4%     - 1544s
     0     0 -301.01225    0 2260 -373.25406 -301.01225  19.4%     - 1556s
     0     0 -301.01225    0 2258 -373.25406 -301.01225  19.4%     - 1561s
     0     0 -301.91970    0 2158 -373.25406 -301.91970  19.1%     - 1696s
H    0     0                    -366.8213311 -301.91970  17.7%     - 1711s
     0     0 -302.22509    0 2211 -366.82133 -302.22509  17.6%     - 1741s
     0     0 -302.23518    0 2213 -366.82133 -302.23518  17.6%     - 1755s
     0     0 -302.23518    0 2200 -366.82133 -302.23518  17.6%     - 1761s
     0     0 -304.25701    0 2191 -366.82133 -304.25701  17.1%     - 1941s
H    0     0                    -364.4040898 -304.25701  16.5%     - 1951s
     0     0 -304.46471    0 2228 -364.40409 -304.46471  16.4%     - 2003s
     0     0 -304.47915    0 2230 -364.40409 -304.47915  16.4%     - 2017s
     0     0 -304.48559    0 2231 -364.40409 -304.48559  16.4%     - 2026s
     0     0 -304.48746    0 2232 -364.40409 -304.48746  16.4%     - 2033s
     0     0 -305.95583    0 2234 -364.40409 -305.95583  16.0%     - 2289s
H    0     0                    -361.1877278 -305.95583  15.3%     - 2296s
     0     0 -306.30166    0 2272 -361.18773 -306.30166  15.2%     - 2363s
     0     0 -306.31264    0 2286 -361.18773 -306.31264  15.2%     - 2377s
     0     0 -306.35281    0 2276 -361.18773 -306.35281  15.2%     - 2390s
     0     0 -306.35433    0 2283 -361.18773 -306.35433  15.2%     - 2398s
     0     0 -307.28373    0 2105 -361.18773 -307.28373  14.9%     - 2674s
H    0     0                    -357.9713658 -307.28373  14.2%     - 2690s
     0     0 -307.46571    0 2196 -357.97137 -307.46571  14.1%     - 2744s
     0     0 -307.86388    0 2184 -357.97137 -307.86388  14.0%     - 2821s
     0     0 -307.86388    0 2184 -357.97137 -307.86388  14.0%     - 2828s
     0     0 -308.30747    0 2183 -357.97137 -308.30747  13.9%     - 2938s
     0     0 -308.46380    0 2221 -357.97137 -308.46380  13.8%     - 3019s
     0     0 -308.48227    0 2197 -357.97137 -308.48227  13.8%     - 3032s
     0     0 -308.48227    0 2199 -357.97137 -308.48227  13.8%     - 3037s
     0     0 -310.80233    0 2156 -357.97137 -310.80233  13.2%     - 3629s
H    0     0                    -356.8992451 -310.80233  12.9%     - 3647s
     0     0 -311.58771    0 2193 -356.89925 -311.58771  12.7%     - 4069s
     0     0 -311.67665    0 2115 -356.89925 -311.67665  12.7%     - 4114s
     0     0 -311.67665    0 2115 -356.89925 -311.67665  12.7%     - 4121s
     0     0 -311.67665    0 2137 -356.89925 -311.67665  12.7%     - 4162s
     0     0 -312.01169    0 2145 -356.89925 -312.01169  12.6%     - 4490s
     0     0 -312.01169    0 2146 -356.89925 -312.01169  12.6%     - 4497s
     0     0 -312.71596    0 2051 -356.89925 -312.71596  12.4%     - 6098s
     0     0 -313.14927    0 2114 -356.89925 -313.14927  12.3%     - 7027s
     0     0 -313.14927    0 2150 -356.89925 -313.14927  12.3%     - 7045s
     0     0 -313.36519    0 2172 -356.89925 -313.36519  12.2%     - 7259s
     0     0 -313.54015    0 2167 -356.89925 -313.54015  12.1%     - 7441s
     0     0 -313.54957    0 2186 -356.89925 -313.54957  12.1%     - 7464s
     0     0 -313.57393    0 2187 -356.89925 -313.57393  12.1%     - 7482s
     0     0 -313.57597    0 2189 -356.89925 -313.57597  12.1%     - 7492s
     0     0 -314.53564    0 2157 -356.89925 -314.53564  11.9%     - 9412s
H    0     0                    -355.8271244 -314.53564  11.6%     - 9449s
     0     0 -314.66575    0 2171 -355.82712 -314.66575  11.6%     - 9470s
     0     0 -314.69302    0 2179 -355.82712 -314.69302  11.6%     - 9487s
     0     0 -314.71650    0 2181 -355.82712 -314.71650  11.6%     - 9502s
     0     0 -314.72631    0 2182 -355.82712 -314.72631  11.6%     - 9511s
     0     0 -314.72631    0 2182 -355.82712 -314.72631  11.6%     - 9514s
     0     0 -315.78645    0 2069 -355.82712 -315.78645  11.3%     - 16078s
     0     0 -315.96513    0 2065 -355.82712 -315.96513  11.2%     - 16933s
     0     0 -315.99433    0 2167 -355.82712 -315.99433  11.2%     - 17105s
     0     0 -316.00901    0 2173 -355.82712 -316.00901  11.2%     - 17136s
     0     0 -316.01033    0 2183 -355.82712 -316.01033  11.2%     - 17166s
     0     0 -316.16038    0 2238 -355.82712 -316.16038  11.1%     - 17248s
     0     0 -316.22046    0 2249 -355.82712 -316.22046  11.1%     - 17513s
     0     0 -316.33740    0 2174 -355.82712 -316.33740  11.1%     - 17771s
     0     0 -316.36718    0 2175 -355.82712 -316.36718  11.1%     - 17994s
     0     0 -316.36718    0 2170 -355.82712 -316.36718  11.1%     - 18006s
     0     0 -316.36718    0 2187 -355.82712 -316.36718  11.1%     - 18036s
H    0     0                    -353.6828831 -316.36718  10.6%     - 18063s
     0     0 -316.39398    0 2184 -353.68288 -316.39398  10.5%     - 18075s
     0     0 -316.39398    0 2181 -353.68288 -316.39398  10.5%     - 18082s
     0     0 -316.92275    0 2147 -353.68288 -316.92275  10.4%     - 25029s
     0     0 -317.06791    0 2248 -353.68288 -317.06791  10.4%     - 25200s
     0     0 -317.16770    0 2259 -353.68288 -317.16770  10.3%     - 25227s
     0     0 -317.16770    0 2264 -353.68288 -317.16770  10.3%     - 25232s
     0     0 -317.93981    0 2168 -353.68288 -317.93981  10.1%     - 26195s
     0     0 -317.94761    0 2173 -353.68288 -317.94761  10.1%     - 26238s
     0     0 -317.97738    0 2175 -353.68288 -317.97738  10.1%     - 26249s
     0     0 -317.98366    0 2178 -353.68288 -317.98366  10.1%     - 26261s
     0     0 -317.98366    0 2179 -353.68288 -317.98366  10.1%     - 26264s
     0     0 -318.15148    0 2156 -353.68288 -318.15148  10.0%     - 26343s
H    0     0                    -353.3468488 -318.15148  10.0%     - 26366s
     0     0 -318.19896    0 2168 -353.34685 -318.19896  9.95%     - 26408s
     0     0 -318.21276    0 2171 -353.34685 -318.21276  9.94%     - 26422s
     0     0 -318.22442    0 2185 -353.34685 -318.22442  9.94%     - 26435s
     0     0 -318.24286    0 2174 -353.34685 -318.24286  9.93%     - 26443s
     0     0 -318.24467    0 2178 -353.34685 -318.24467  9.93%     - 26448s
     0     0 -318.84081    0 2164 -353.34685 -318.84081  9.77%     - 26972s
     0     0 -319.12049    0 2177 -353.34685 -319.12049  9.69%     - 27704s
     0     0 -319.12728    0 2177 -353.34685 -319.12728  9.68%     - 27736s
     0     0 -319.12843    0 2181 -353.34685 -319.12843  9.68%     - 27748s
     0     0 -319.31537    0 2201 -353.34685 -319.31537  9.63%     - 27855s
     0     0 -319.41381    0 2191 -353.34685 -319.41381  9.60%     - 27926s
     0     0 -319.41627    0 2200 -353.34685 -319.41627  9.60%     - 27944s
     0     0 -319.86110    0 2200 -353.34685 -319.86110  9.48%     - 28211s
     0     0 -319.94321    0 2164 -353.34685 -319.94321  9.45%     - 28346s
     0     0 -319.94784    0 2160 -353.34685 -319.94784  9.45%     - 28360s
     0     0 -319.94855    0 2165 -353.34685 -319.94855  9.45%     - 28370s
     0     0 -320.69444    0 2138 -353.34685 -320.69444  9.24%     - 28853s
     0     0 -320.73018    0 2140 -353.34685 -320.73018  9.23%     - 28997s
     0     0 -320.73018    0 2142 -353.34685 -320.73018  9.23%     - 29014s
     0     0 -320.98129    0 2173 -353.34685 -320.98129  9.16%     - 35294s
     0     0 -320.99870    0 2203 -353.34685 -320.99870  9.15%     - 35340s
     0     0 -321.03409    0 2202 -353.34685 -321.03409  9.14%     - 35357s
     0     0 -321.03680    0 2203 -353.34685 -321.03680  9.14%     - 35367s
     0     0 -321.28135    0 2206 -353.34685 -321.28135  9.07%     - 35503s
     0     0 -321.29207    0 2218 -353.34685 -321.29207  9.07%     - 35541s
     0     0 -321.30176    0 2149 -353.34685 -321.30176  9.07%     - 35555s
     0     0 -321.30281    0 2176 -353.34685 -321.30281  9.07%     - 35563s
     0     0 -321.68544    0 2195 -353.34685 -321.68544  8.96%     - 35661s
     0     0 -321.68544    0 2182 -353.34685 -321.68544  8.96%     - 35692s
     0     0 -321.93977    0 2160 -353.34685 -321.93977  8.89%     - 35917s
     0     0 -322.01125    0 2165 -353.34685 -322.01125  8.87%     - 35987s
     0     0 -322.02013    0 2172 -353.34685 -322.02013  8.87%     - 36005s
     0     0 -322.02013    0 2175 -353.34685 -322.02013  8.87%     - 36011s
     0     0 -322.61338    0 2166 -353.34685 -322.61338  8.70%     - 36296s
     0     0 -322.62411    0 2191 -353.34685 -322.62411  8.69%     - 36363s
     0     0 -322.62411    0 2207 -353.34685 -322.62411  8.69%     - 36377s
     0     0 -322.64511    0 2218 -353.34685 -322.64511  8.69%     - 36427s
     0     0 -322.66368    0 2211 -353.34685 -322.66368  8.68%     - 36468s
     0     0 -322.68072    0 2209 -353.34685 -322.68072  8.68%     - 36477s
     0     0 -322.68146    0 2214 -353.34685 -322.68146  8.68%     - 36483s
     0     0 -322.68218    0 2164 -353.34685 -322.68218  8.68%     - 36885s
     0     0 -322.68218    0 2155 -353.34685 -322.68218  8.68%     - 36926s
H    0     0                    -350.6140133 -322.68218  7.97%     - 37288s
     0     2 -322.68284    0 2153 -350.61401 -322.68284  7.97%     - 37349s
     1     3 -323.11339    1 1639 -350.61401 -322.68433  7.97%  2089 37356s
     2     4 -333.83660    2 1361 -350.61401 -322.68433  7.97% 23328 37855s
     3     5 -335.63610    3 1277 -350.61401 -322.68433  7.97% 16907 37890s
     4     6 -342.67274    4  372 -350.61401 -322.68433  7.97% 13496 37912s
     5     7 -345.62107    5  354 -350.61401 -322.68433  7.97% 11014 37918s
     6     8 -350.44562    6  334 -350.61401 -322.68433  7.97%  9234 37922s
     9     7 -348.30137    6  461 -350.61401 -322.68433  7.97%  6389 37940s
    14     6 -327.23521    1 2084 -350.61401 -323.11843  7.84%  5302 38139s
    15     7 -331.34727    2  895 -350.61401 -323.11843  7.84%  5220 38264s
    16     8 -334.55307    3  787 -350.61401 -323.11843  7.84%  5064 38306s
    17     9 -336.78665    4  756 -350.61401 -323.11843  7.84%  4801 38312s
    18    10 -336.51862    4  798 -350.61401 -323.11843  7.84%  4625 38329s
    19    11 -339.73498    5  789 -350.61401 -323.11843  7.84%  4404 38334s
    20    12 -342.41528    6  778 -350.61401 -323.11843  7.84%  4205 38338s
    21    13 -346.16771    7  765 -350.61401 -323.11843  7.84%  4028 38342s
    22    14 -345.63165    7  752 -350.61401 -323.11843  7.84%  3865 38347s
    24    14     cutoff    9      -350.61401 -323.11843  7.84%  3555 38350s
    28    12     cutoff    9      -350.61401 -323.11843  7.84%  3070 38355s
    30    12 -349.38407    8  734 -350.61401 -323.11843  7.84%  2882 38360s
    35    11 -328.25772    2 1548 -350.61401 -327.24905  6.66%  2886 38483s
    36    12 -333.76986    3  926 -350.61401 -327.24905  6.66%  2836 38514s
    37    13 -336.45016    4  916 -350.61401 -327.24905  6.66%  2772 38519s
    38    14 -335.91410    4  910 -350.61401 -327.24905  6.66%  2713 38525s
    39    15 -338.59440    5  903 -350.61401 -327.24905  6.66%  2659 38533s
    40    16 -341.86474    6  889 -350.61401 -327.24905  6.66%  2653 38573s
    41    17 -343.59205    7  871 -350.61401 -327.24905  6.66%  2605 38579s
    42    18 -344.30680    7  757 -350.61401 -327.24905  6.66%  2615 38594s
    43    19 -343.77074    8  851 -350.61401 -327.24905  6.66%  2556 38595s
    44    20 -346.18301    9  796 -350.61401 -327.24905  6.66%  2506 38600s
    45    21 -348.59528   10  771 -350.61401 -327.24905  6.66%  2458 38606s
    49    19     cutoff   11      -350.61401 -327.24905  6.66%  2267 38610s
    51    19 -346.98710    9  789 -350.61401 -327.24905  6.66%  2194 38618s
    53    17     cutoff   10      -350.61401 -327.24905  6.66%  2124 38622s
    54    18 -341.29608    2  955 -350.61401 -328.35052  6.35%  2419 38853s
    55    19 -344.56642    3  921 -350.61401 -328.35052  6.35%  2421 38884s
    56    20 -346.29372    4  911 -350.61401 -328.35052  6.35%  2390 38906s
    57    21 -347.00847    4  792 -350.61401 -328.35052  6.35%  2384 38927s
    58    22 -342.98802    3  921 -350.61401 -328.35052  6.35%  2406 38956s
    59    23 -344.90890    4  912 -350.61401 -328.35052  6.35%  2391 38975s
    61    23     cutoff    5      -350.61401 -328.35052  6.35%  2337 38986s
    63    25 -348.08059    7  701 -350.61401 -328.35052  6.35%  2266 38995s
    64    26 -350.22483    8  694 -350.61401 -328.35052  6.35%  2234 39006s
    70    24     cutoff   10      -350.61401 -328.35052  6.35%  2047 39010s
    72    24 -338.83074    3  475 -350.61401 -331.44681  5.47%  2365 39394s
    73    25 -342.03654    4  369 -350.61401 -331.44681  5.47%  2363 39423s
    74    26 -345.07422    5  393 -350.61401 -331.44681  5.47%  2339 39429s
    75    27 -342.39391    5  400 -350.61401 -331.44681  5.47%  2311 39431s
    77    29 -345.61028    7  390 -350.61401 -331.44681  5.47%  2256 39442s
    78    30 -350.43482    8  332 -350.61401 -331.44681  5.47%  2256 39457s
    81    29 -349.89876    8  336 -350.61401 -331.44681  5.47%  2202 39477s
    84    26     cutoff    7      -350.61401 -331.44681  5.47%  2151 39491s
H   85    25                    -349.6043875 -331.44681  5.19%  2125 39656s
    86    28 -334.77897    4  916 -349.60439 -333.34978  4.65%  2286 39671s
    87    29 -338.04931    5  896 -349.60439 -333.34978  4.65%  2338 39753s
    88    30 -339.77661    6  879 -349.60439 -333.34978  4.65%  2324 39797s
    89    31 -340.49136    6  743 -349.60439 -333.34978  4.65%  2368 39867s
    90    32 -336.47091    5  852 -349.60439 -333.34978  4.65%  2376 39909s
    91    33 -343.17166    7  804 -349.60439 -333.34978  4.65%  2361 39916s
    92    34 -346.38803    8  792 -349.60439 -333.34978  4.65%  2343 39922s
    93    35 -346.92409    8  794 -349.60439 -333.34978  4.65%  2327 39928s
    96    34 -347.46015    9  784 -349.60439 -333.34978  4.65%  2258 39949s
    97    35 -347.46015   10  785 -349.60439 -333.34978  4.65%  2234 39950s
   103    33 -333.85275    4  869 -349.60439 -333.84702  4.51%  2173 40003s
   104    34 -336.18167    5 1118 -349.60439 -333.84702  4.51%  2689 41351s
   105    35 -336.42986    6  992 -349.60439 -333.84702  4.51%  2679 41379s
   106    36 -338.18934    7  968 -349.60439 -333.84702  4.51%  2755 41592s
   107    37 -340.07639    8  978 -349.60439 -333.84702  4.51%  2879 41996s
   108    38 -342.12603    9  910 -349.60439 -333.84702  4.51%  2912 42115s
   109    39 -342.93012   10  895 -349.60439 -333.84702  4.51%  2912 42173s
   110    40 -343.19815   11  741 -349.60439 -333.84702  4.51%  2891 42190s
   111    41 -344.23891   12  837 -349.60439 -333.84702  4.51%  2947 42312s
   112    42 -344.40742   13  692 -349.60439 -333.84702  4.51%  2959 42374s
   113    43 -344.53336   14  829 -349.60439 -333.84702  4.51%  2963 42428s
   114    44 -344.76765   15 1958 -349.60439 -333.84702  4.51%  2973 42463s
   115    45 -346.39987   16 1931 -349.60439 -333.84702  4.51%  2966 42475s
   117    47 -346.45346   18 1844 -349.60439 -333.84702  4.51%  2920 42480s
   119    49 -346.58608   20 1539 -349.60439 -333.84702  4.51%  2877 42487s
   121    51 -348.21232   22  591 -349.60439 -333.84702  4.51%  2842 42499s
   122    50     cutoff   23      -349.60439 -333.84702  4.51%  2827 42507s
   123    49     cutoff   23      -349.60439 -333.84702  4.51%  9296 76189s
   124    50 -347.16118   22  720 -349.60439 -333.84702  4.51%  9227 76196s
   125    51 -347.30836   23  645 -349.60439 -333.84702  4.51%  9160 76208s
   126    50     cutoff   24      -349.60439 -333.84702  4.51%  9375 76953s
   127    51 -349.32640   24  582 -349.60439 -333.84702  4.51%  9308 76965s
   128    50     cutoff   25      -349.60439 -333.84702  4.51%  9324 77150s
   129    49     cutoff   25      -349.60439 -333.84702  4.51%  9336 77336s
   130    50 -349.28444   23  636 -349.60439 -333.84702  4.51%  9374 77554s
   131    49     cutoff   24      -349.60439 -333.84702  4.51%  9413 77787s
   132    48     cutoff   24      -349.60439 -333.84702  4.51%  9344 77795s

Cutting planes:
  Gomory: 2
  MIR: 3
  StrongCG: 2
  Zero half: 487

Explored 133 nodes (2414563 simplex iterations) in 86400.40 seconds
Thread count was 1 (of 80 available processors)

Solution count 10: -349.604 -350.614 -353.347 ... -366.821

Time limit reached
Best objective -3.496043874917e+02, best bound -3.338470167784e+02, gap 4.5072%
